Model Comparison - reduced MRP:

Parameters:
W = 200
K = 3
Duplications = 20
s = 5
r = 10
Starting Positions = 1.0, 1.01, 2.0

Gurobi Log Excerpt:
Academic license - for non-commercial use only - expires 2021-07-06
Using license file /Users/ellajohnsen/gurobi.lic
Gurobi Optimizer version 9.1.1 build v9.1.1rc0 (mac64)
Thread count: 8 physical cores, 8 logical processors, using up to 8 threads
Optimize a model with 4201 rows, 3366 columns and 83444 nonzeros
Model fingerprint: 0x2d59190a
Variable types: 82 continuous, 3284 integer (3284 binary)
Coefficient statistics:
  Matrix range     [1e+00, 2e+02]
  Objective range  [3e+02, 4e+06]
  Bounds range     [1e+00, 2e+02]
  RHS range        [1e+00, 2e+02]
Found heuristic solution: objective 1.480015e+08
Presolve removed 1035 rows and 797 columns
Presolve time: 0.72s
Presolved: 3166 rows, 2569 columns, 13454 nonzeros
Variable types: 70 continuous, 2499 integer (2499 binary)

Root relaxation: objective 5.070671e+07, 741 iterations, 0.05 seconds

    Nodes    |    Current Node    |     Objective Bounds      |     Work
 Expl Unexpl |  Obj  Depth IntInf | Incumbent    BestBd   Gap | It/Node Time

     0     0 5.6037e+07    0  134 1.4800e+08 5.6037e+07  62.1%     -    1s
H    0     0                    1.400090e+08 5.6037e+07  60.0%     -    1s
     0     0 5.6037e+07    0  111 1.4001e+08 5.6037e+07  60.0%     -    1s
     0     0 5.6037e+07    0  140 1.4001e+08 5.6037e+07  60.0%     -    2s
     0     0 5.6037e+07    0  142 1.4001e+08 5.6037e+07  60.0%     -    3s
     0     0 5.6037e+07    0  103 1.4001e+08 5.6037e+07  60.0%     -    3s
H    0     0                    1.320162e+08 5.6037e+07  57.6%     -    4s
     0     0 5.6037e+07    0   61 1.3202e+08 5.6037e+07  57.6%     -    4s
     0     0 5.6037e+07    0   60 1.3202e+08 5.6037e+07  57.6%     -    4s
H    0     0                    1.280168e+08 5.6037e+07  56.2%     -    4s
     0     0 5.6037e+07    0   60 1.2802e+08 5.6037e+07  56.2%     -    5s
     0     0 5.6037e+07    0   67 1.2802e+08 5.6037e+07  56.2%     -    5s
H    0     0                    1.280156e+08 5.6037e+07  56.2%     -    5s
     0     0 5.6037e+07    0   69 1.2802e+08 5.6037e+07  56.2%     -    5s
H    0     0                    1.200206e+08 5.6037e+07  53.3%     -    5s
     0     0 5.6037e+07    0   43 1.2002e+08 5.6037e+07  53.3%     -    6s
     0     2 5.6037e+07    0   43 1.2002e+08 5.6037e+07  53.3%     -    6s
H   26    18                    1.120258e+08 5.6037e+07  50.0%   134    8s
H   29    18                    1.080236e+08 5.6037e+07  48.1%   122    8s
H   31    18                    1.040328e+08 5.6037e+07  46.1%   121    8s
H   38    23                    1.040308e+08 5.6037e+07  46.1%   105    8s
H   69    52                    1.000308e+08 5.6037e+07  44.0%  85.9   12s
H   78    60                    9.603400e+07 5.6037e+07  41.6%  79.6   13s
H   80    60                    9.203200e+07 5.6037e+07  39.1%  78.7   13s
H  178   134                    8.404000e+07 5.6037e+07  33.3%  49.5   15s
H  179   134                    8.004300e+07 5.6037e+07  30.0%  49.4   15s
H  186   134                    8.004100e+07 5.6037e+07  30.0%  48.3   15s
H  187   134                    8.003560e+07 5.6037e+07  30.0%  48.1   15s
H  732   587                    8.003360e+07 5.6037e+07  30.0%  30.9   18s
  1677  1773 5.6044e+07  137   78 8.0034e+07 5.6037e+07  30.0%  27.3   20s
H 2458  1686                    8.003240e+07 5.6037e+07  30.0%  25.3   24s
  2462  1688 6.4055e+07   73   98 8.0032e+07 5.6037e+07  30.0%  25.3   25s
  2468  1692 5.6046e+07   45   83 8.0032e+07 5.6037e+07  30.0%  25.2   30s
  2477  1701 5.6037e+07   10   76 8.0032e+07 5.6037e+07  30.0%  30.7   36s
  2498  1707 5.6037e+07   14   70 8.0032e+07 5.6037e+07  30.0%  34.3   40s
H 2547  1646                    7.603560e+07 5.6037e+07  26.3%  36.3   47s
H 2587  1579                    7.203960e+07 5.6037e+07  22.2%  37.2   48s
H 2642  1533                    7.203760e+07 5.6037e+07  22.2%  38.3   53s
H 2643  1460                    6.804080e+07 5.6037e+07  17.6%  38.3   53s
H 2652  1387                    6.803840e+07 5.6037e+07  17.6%  38.9   53s
  2862  1845 infeasible   39      6.8038e+07 5.6037e+07  17.6%  39.5   55s
  4730  3335 6.0050e+07   76   48 6.8038e+07 5.6037e+07  17.6%  36.7   65s
  6506  2932 5.6042e+07   79   61 6.8038e+07 5.6037e+07  17.6%  33.5   73s
  6931  3469 5.6051e+07   73   72 6.8038e+07 5.6037e+07  17.6%  34.3   76s
  7456  4123 6.0042e+07   84   37 6.8038e+07 5.6037e+07  17.6%  34.6   81s
H 8109  3971                    6.404160e+07 5.6037e+07  12.5%  33.3   81s
H 8139  3700                    6.004320e+07 5.6037e+07  6.67%  33.2   81s
  9566  6030 5.6040e+07   50   54 6.0043e+07 5.6037e+07  6.67%  31.8   85s
 15566  7710 6.0042e+07   97  111 6.0043e+07 5.6037e+07  6.67%  27.0   96s
 15571  7713 6.0041e+07   89   84 6.0043e+07 5.6037e+07  6.67%  27.0  101s
 15578  7718 5.6050e+07   87  112 6.0043e+07 5.6037e+07  6.67%  27.0  105s
 15596  7731 5.6037e+07   24   73 6.0043e+07 5.6037e+07  6.67%  28.0  110s
 15694  7792 5.6037e+07   30   69 6.0043e+07 5.6037e+07  6.67%  29.2  115s
 15868  7844 infeasible   37      6.0043e+07 5.6037e+07  6.67%  30.0  122s
H16001  7537                    5.604560e+07 5.6037e+07  0.01%  31.2  124s
 16066  7705 infeasible   44      5.6046e+07 5.6037e+07  0.01%  31.6  126s
 17389  9390 5.6039e+07  102   46 5.6046e+07 5.6037e+07  0.01%  33.8  131s
 20681  9577 5.6038e+07   53   75 5.6046e+07 5.6037e+07  0.01%  33.2  136s
 25658 10826 infeasible   65      5.6046e+07 5.6037e+07  0.01%  32.5  140s
 29969 12233 5.6039e+07   44   80 5.6046e+07 5.6037e+07  0.01%  32.5  145s
 30246 12734 5.6043e+07   63   48 5.6046e+07 5.6037e+07  0.01%  32.8  150s
 31374 12613 5.6041e+07   73   69 5.6046e+07 5.6037e+07  0.01%  32.5  155s
 32763 14149 5.6038e+07   64   74 5.6046e+07 5.6037e+07  0.01%  33.8  160s
 35154 13436 infeasible   73      5.6046e+07 5.6037e+07  0.01%  34.1  165s
 35779 14460 5.6044e+07   50   93 5.6046e+07 5.6037e+07  0.01%  34.8  175s
 40133 16428 5.6041e+07   80   48 5.6046e+07 5.6037e+07  0.01%  36.7  181s
 40603 17828 5.6045e+07   65   31 5.6046e+07 5.6037e+07  0.01%  37.2  186s
 43136 18857 5.6039e+07   63   87 5.6046e+07 5.6037e+07  0.01%  37.8  198s
 44467 18871 5.6042e+07   79   60 5.6046e+07 5.6037e+07  0.01%  38.3  214s
H44496 16495                    5.604360e+07 5.6037e+07  0.01%  38.3  214s
H44507   945                    5.603800e+07 5.6037e+07  0.00%  38.3  214s

Cutting planes:
  Gomory: 2
  Cover: 57
  Projected implied bound: 4
  Clique: 66
  MIR: 21
  StrongCG: 14
  Flow cover: 19
  GUB cover: 21
  Zero half: 4
  Relax-and-lift: 5

Explored 44550 nodes (1721874 simplex iterations) in 214.98 seconds
Thread count was 8 (of 8 available processors)

Solution count 10: 5.6038e+07 5.60436e+07 5.60456e+07 ... 7.60356e+07

Optimal solution found (tolerance 1.00e-04)
Best objective 5.603800000000e+07, best bound 5.603720000000e+07, gap 0.0014%
